(set-info :category "industrial")
(set-info :status sat)
(declare-fun x00 () (_ BitVec 8))
(declare-fun x01 () (_ BitVec 8))
(declare-fun x02 () (_ BitVec 8))
(declare-fun x03 () (_ BitVec 8))
(declare-fun x04 () (_ BitVec 8))
(declare-fun x06 () (_ BitVec 8))
(declare-fun x10 () (_ BitVec 8))
(declare-fun x11 () (_ BitVec 8))
(declare-fun x12 () (_ BitVec 8))
(declare-fun x14 () (_ BitVec 8))
(declare-fun x15 () (_ BitVec 8))
(declare-fun x16 () (_ BitVec 8))
(declare-fun x17 () (_ BitVec 8))
(declare-fun x18 () (_ BitVec 8))
(declare-fun x20 () (_ BitVec 8))
(declare-fun x21 () (_ BitVec 8))
(declare-fun x22 () (_ BitVec 8))
(declare-fun x25 () (_ BitVec 8))
(declare-fun x27 () (_ BitVec 8))
(declare-fun x28 () (_ BitVec 8))
(declare-fun x30 () (_ BitVec 8))
(declare-fun x31 () (_ BitVec 8))
(declare-fun x35 () (_ BitVec 8))
(declare-fun x36 () (_ BitVec 8))
(declare-fun x38 () (_ BitVec 8))
(declare-fun x40 () (_ BitVec 8))
(declare-fun x41 () (_ BitVec 8))
(declare-fun x43 () (_ BitVec 8))
(declare-fun x44 () (_ BitVec 8))
(declare-fun x45 () (_ BitVec 8))
(declare-fun x46 () (_ BitVec 8))
(declare-fun x47 () (_ BitVec 8))
(declare-fun x48 () (_ BitVec 8))
(declare-fun x51 () (_ BitVec 8))
(declare-fun x52 () (_ BitVec 8))
(declare-fun x53 () (_ BitVec 8))
(declare-fun x54 () (_ BitVec 8))
(declare-fun x56 () (_ BitVec 8))
(declare-fun x58 () (_ BitVec 8))
(declare-fun x62 () (_ BitVec 8))
(declare-fun x63 () (_ BitVec 8))
(declare-fun x64 () (_ BitVec 8))
(declare-fun x66 () (_ BitVec 8))
(declare-fun x67 () (_ BitVec 8))
(declare-fun x68 () (_ BitVec 8))
(declare-fun x70 () (_ BitVec 8))
(declare-fun x71 () (_ BitVec 8))
(declare-fun x72 () (_ BitVec 8))
(declare-fun x73 () (_ BitVec 8))
(declare-fun x74 () (_ BitVec 8))
(declare-fun x75 () (_ BitVec 8))
(declare-fun x76 () (_ BitVec 8))
(declare-fun x78 () (_ BitVec 8))
(declare-fun x80 () (_ BitVec 8))
(declare-fun x82 () (_ BitVec 8))
(declare-fun x83 () (_ BitVec 8))
(declare-fun x84 () (_ BitVec 8))
(declare-fun x85 () (_ BitVec 8))
(declare-fun x87 () (_ BitVec 8))
(assert (bvult x00 (_ bv9 8)))
(assert (bvult x01 (_ bv9 8)))
(assert (bvult x02 (_ bv9 8)))
(assert (bvult x03 (_ bv9 8)))
(assert (bvult x04 (_ bv9 8)))
(assert (bvult x06 (_ bv9 8)))
(assert (bvult x10 (_ bv9 8)))
(assert (bvult x11 (_ bv9 8)))
(assert (bvult x12 (_ bv9 8)))
(assert (bvult x14 (_ bv9 8)))
(assert (bvult x15 (_ bv9 8)))
(assert (bvult x16 (_ bv9 8)))
(assert (bvult x17 (_ bv9 8)))
(assert (bvult x18 (_ bv9 8)))
(assert (bvult x20 (_ bv9 8)))
(assert (bvult x21 (_ bv9 8)))
(assert (bvult x22 (_ bv9 8)))
(assert (bvult x25 (_ bv9 8)))
(assert (bvult x27 (_ bv9 8)))
(assert (bvult x28 (_ bv9 8)))
(assert (bvult x30 (_ bv9 8)))
(assert (bvult x31 (_ bv9 8)))
(assert (bvult x35 (_ bv9 8)))
(assert (bvult x36 (_ bv9 8)))
(assert (bvult x38 (_ bv9 8)))
(assert (bvult x40 (_ bv9 8)))
(assert (bvult x41 (_ bv9 8)))
(assert (bvult x43 (_ bv9 8)))
(assert (bvult x44 (_ bv9 8)))
(assert (bvult x45 (_ bv9 8)))
(assert (bvult x46 (_ bv9 8)))
(assert (bvult x47 (_ bv9 8)))
(assert (bvult x48 (_ bv9 8)))
(assert (bvult x51 (_ bv9 8)))
(assert (bvult x52 (_ bv9 8)))
(assert (bvult x53 (_ bv9 8)))
(assert (bvult x54 (_ bv9 8)))
(assert (bvult x56 (_ bv9 8)))
(assert (bvult x58 (_ bv9 8)))
(assert (bvult x62 (_ bv9 8)))
(assert (bvult x63 (_ bv9 8)))
(assert (bvult x64 (_ bv9 8)))
(assert (bvult x66 (_ bv9 8)))
(assert (bvult x67 (_ bv9 8)))
(assert (bvult x68 (_ bv9 8)))
(assert (bvult x70 (_ bv9 8)))
(assert (bvult x71 (_ bv9 8)))
(assert (bvult x72 (_ bv9 8)))
(assert (bvult x73 (_ bv9 8)))
(assert (bvult x74 (_ bv9 8)))
(assert (bvult x75 (_ bv9 8)))
(assert (bvult x76 (_ bv9 8)))
(assert (bvult x78 (_ bv9 8)))
(assert (bvult x80 (_ bv9 8)))
(assert (bvult x82 (_ bv9 8)))
(assert (bvult x83 (_ bv9 8)))
(assert (bvult x84 (_ bv9 8)))
(assert (bvult x85 (_ bv9 8)))
(assert (bvult x87 (_ bv9 8)))
(assert (not (= x00 x01)))
(assert (not (= x00 x02)))
(assert (not (= x00 x03)))
(assert (not (= x00 x04)))
(assert (not (= x00 (_ bv5 8))))
(assert (not (= x00 x06)))
(assert (not (= x00 (_ bv4 8))))
(assert (not (= x00 (_ bv7 8))))
(assert (not (= x01 x02)))
(assert (not (= x01 x03)))
(assert (not (= x01 x04)))
(assert (not (= x01 (_ bv5 8))))
(assert (not (= x01 x06)))
(assert (not (= x01 (_ bv4 8))))
(assert (not (= x01 (_ bv7 8))))
(assert (not (= x02 x03)))
(assert (not (= x02 x04)))
(assert (not (= x02 (_ bv5 8))))
(assert (not (= x02 x06)))
(assert (not (= x02 (_ bv4 8))))
(assert (not (= x02 (_ bv7 8))))
(assert (not (= x03 x04)))
(assert (not (= x03 (_ bv5 8))))
(assert (not (= x03 x06)))
(assert (not (= x03 (_ bv4 8))))
(assert (not (= x03 (_ bv7 8))))
(assert (not (= x04 (_ bv5 8))))
(assert (not (= x04 x06)))
(assert (not (= x04 (_ bv4 8))))
(assert (not (= x04 (_ bv7 8))))
(assert (not (= (_ bv5 8) x06)))
(assert (not (= (_ bv5 8) (_ bv4 8))))
(assert (not (= (_ bv5 8) (_ bv7 8))))
(assert (not (= x06 (_ bv4 8))))
(assert (not (= x06 (_ bv7 8))))
(assert (not (= (_ bv4 8) (_ bv7 8))))
(assert (not (= x10 x11)))
(assert (not (= x10 x12)))
(assert (not (= x10 (_ bv3 8))))
(assert (not (= x10 x14)))
(assert (not (= x10 x15)))
(assert (not (= x10 x16)))
(assert (not (= x10 x17)))
(assert (not (= x10 x18)))
(assert (not (= x11 x12)))
(assert (not (= x11 (_ bv3 8))))
(assert (not (= x11 x14)))
(assert (not (= x11 x15)))
(assert (not (= x11 x16)))
(assert (not (= x11 x17)))
(assert (not (= x11 x18)))
(assert (not (= x12 (_ bv3 8))))
(assert (not (= x12 x14)))
(assert (not (= x12 x15)))
(assert (not (= x12 x16)))
(assert (not (= x12 x17)))
(assert (not (= x12 x18)))
(assert (not (= (_ bv3 8) x14)))
(assert (not (= (_ bv3 8) x15)))
(assert (not (= (_ bv3 8) x16)))
(assert (not (= (_ bv3 8) x17)))
(assert (not (= (_ bv3 8) x18)))
(assert (not (= x14 x15)))
(assert (not (= x14 x16)))
(assert (not (= x14 x17)))
(assert (not (= x14 x18)))
(assert (not (= x15 x16)))
(assert (not (= x15 x17)))
(assert (not (= x15 x18)))
(assert (not (= x16 x17)))
(assert (not (= x16 x18)))
(assert (not (= x17 x18)))
(assert (not (= x20 x21)))
(assert (not (= x20 x22)))
(assert (not (= x20 (_ bv2 8))))
(assert (not (= x20 (_ bv8 8))))
(assert (not (= x20 x25)))
(assert (not (= x20 (_ bv5 8))))
(assert (not (= x20 x27)))
(assert (not (= x20 x28)))
(assert (not (= x21 x22)))
(assert (not (= x21 (_ bv2 8))))
(assert (not (= x21 (_ bv8 8))))
(assert (not (= x21 x25)))
(assert (not (= x21 (_ bv5 8))))
(assert (not (= x21 x27)))
(assert (not (= x21 x28)))
(assert (not (= x22 (_ bv2 8))))
(assert (not (= x22 (_ bv8 8))))
(assert (not (= x22 x25)))
(assert (not (= x22 (_ bv5 8))))
(assert (not (= x22 x27)))
(assert (not (= x22 x28)))
(assert (not (= (_ bv2 8) (_ bv8 8))))
(assert (not (= (_ bv2 8) x25)))
(assert (not (= (_ bv2 8) (_ bv5 8))))
(assert (not (= (_ bv2 8) x27)))
(assert (not (= (_ bv2 8) x28)))
(assert (not (= (_ bv8 8) x25)))
(assert (not (= (_ bv8 8) (_ bv5 8))))
(assert (not (= (_ bv8 8) x27)))
(assert (not (= (_ bv8 8) x28)))
(assert (not (= x25 (_ bv5 8))))
(assert (not (= x25 x27)))
(assert (not (= x25 x28)))
(assert (not (= (_ bv5 8) x27)))
(assert (not (= (_ bv5 8) x28)))
(assert (not (= x27 x28)))
(assert (not (= x30 x31)))
(assert (not (= x30 (_ bv3 8))))
(assert (not (= x30 (_ bv5 8))))
(assert (not (= x30 (_ bv2 8))))
(assert (not (= x30 x35)))
(assert (not (= x30 x36)))
(assert (not (= x30 (_ bv6 8))))
(assert (not (= x30 x38)))
(assert (not (= x31 (_ bv3 8))))
(assert (not (= x31 (_ bv5 8))))
(assert (not (= x31 (_ bv2 8))))
(assert (not (= x31 x35)))
(assert (not (= x31 x36)))
(assert (not (= x31 (_ bv6 8))))
(assert (not (= x31 x38)))
(assert (not (= (_ bv3 8) (_ bv5 8))))
(assert (not (= (_ bv3 8) (_ bv2 8))))
(assert (not (= (_ bv3 8) x35)))
(assert (not (= (_ bv3 8) x36)))
(assert (not (= (_ bv3 8) (_ bv6 8))))
(assert (not (= (_ bv3 8) x38)))
(assert (not (= (_ bv5 8) (_ bv2 8))))
(assert (not (= (_ bv5 8) x35)))
(assert (not (= (_ bv5 8) x36)))
(assert (not (= (_ bv5 8) (_ bv6 8))))
(assert (not (= (_ bv5 8) x38)))
(assert (not (= (_ bv2 8) x35)))
(assert (not (= (_ bv2 8) x36)))
(assert (not (= (_ bv2 8) (_ bv6 8))))
(assert (not (= (_ bv2 8) x38)))
(assert (not (= x35 x36)))
(assert (not (= x35 (_ bv6 8))))
(assert (not (= x35 x38)))
(assert (not (= x36 (_ bv6 8))))
(assert (not (= x36 x38)))
(assert (not (= (_ bv6 8) x38)))
(assert (not (= x40 x41)))
(assert (not (= x40 (_ bv8 8))))
(assert (not (= x40 x43)))
(assert (not (= x40 x44)))
(assert (not (= x40 x45)))
(assert (not (= x40 x46)))
(assert (not (= x40 x47)))
(assert (not (= x40 x48)))
(assert (not (= x41 (_ bv8 8))))
(assert (not (= x41 x43)))
(assert (not (= x41 x44)))
(assert (not (= x41 x45)))
(assert (not (= x41 x46)))
(assert (not (= x41 x47)))
(assert (not (= x41 x48)))
(assert (not (= (_ bv8 8) x43)))
(assert (not (= (_ bv8 8) x44)))
(assert (not (= (_ bv8 8) x45)))
(assert (not (= (_ bv8 8) x46)))
(assert (not (= (_ bv8 8) x47)))
(assert (not (= (_ bv8 8) x48)))
(assert (not (= x43 x44)))
(assert (not (= x43 x45)))
(assert (not (= x43 x46)))
(assert (not (= x43 x47)))
(assert (not (= x43 x48)))
(assert (not (= x44 x45)))
(assert (not (= x44 x46)))
(assert (not (= x44 x47)))
(assert (not (= x44 x48)))
(assert (not (= x45 x46)))
(assert (not (= x45 x47)))
(assert (not (= x45 x48)))
(assert (not (= x46 x47)))
(assert (not (= x46 x48)))
(assert (not (= x47 x48)))
(assert (not (= (_ bv6 8) x51)))
(assert (not (= (_ bv6 8) x52)))
(assert (not (= (_ bv6 8) x53)))
(assert (not (= (_ bv6 8) x54)))
(assert (not (= (_ bv6 8) (_ bv4 8))))
(assert (not (= (_ bv6 8) x56)))
(assert (not (= (_ bv6 8) (_ bv5 8))))
(assert (not (= (_ bv6 8) x58)))
(assert (not (= x51 x52)))
(assert (not (= x51 x53)))
(assert (not (= x51 x54)))
(assert (not (= x51 (_ bv4 8))))
(assert (not (= x51 x56)))
(assert (not (= x51 (_ bv5 8))))
(assert (not (= x51 x58)))
(assert (not (= x52 x53)))
(assert (not (= x52 x54)))
(assert (not (= x52 (_ bv4 8))))
(assert (not (= x52 x56)))
(assert (not (= x52 (_ bv5 8))))
(assert (not (= x52 x58)))
(assert (not (= x53 x54)))
(assert (not (= x53 (_ bv4 8))))
(assert (not (= x53 x56)))
(assert (not (= x53 (_ bv5 8))))
(assert (not (= x53 x58)))
(assert (not (= x54 (_ bv4 8))))
(assert (not (= x54 x56)))
(assert (not (= x54 (_ bv5 8))))
(assert (not (= x54 x58)))
(assert (not (= (_ bv4 8) x56)))
(assert (not (= (_ bv4 8) (_ bv5 8))))
(assert (not (= (_ bv4 8) x58)))
(assert (not (= x56 (_ bv5 8))))
(assert (not (= x56 x58)))
(assert (not (= (_ bv5 8) x58)))
(assert (not (= (_ bv2 8) (_ bv4 8))))
(assert (not (= (_ bv2 8) x62)))
(assert (not (= (_ bv2 8) x63)))
(assert (not (= (_ bv2 8) x64)))
(assert (not (= (_ bv2 8) (_ bv6 8))))
(assert (not (= (_ bv2 8) x66)))
(assert (not (= (_ bv2 8) x67)))
(assert (not (= (_ bv2 8) x68)))
(assert (not (= (_ bv4 8) x62)))
(assert (not (= (_ bv4 8) x63)))
(assert (not (= (_ bv4 8) x64)))
(assert (not (= (_ bv4 8) (_ bv6 8))))
(assert (not (= (_ bv4 8) x66)))
(assert (not (= (_ bv4 8) x67)))
(assert (not (= (_ bv4 8) x68)))
(assert (not (= x62 x63)))
(assert (not (= x62 x64)))
(assert (not (= x62 (_ bv6 8))))
(assert (not (= x62 x66)))
(assert (not (= x62 x67)))
(assert (not (= x62 x68)))
(assert (not (= x63 x64)))
(assert (not (= x63 (_ bv6 8))))
(assert (not (= x63 x66)))
(assert (not (= x63 x67)))
(assert (not (= x63 x68)))
(assert (not (= x64 (_ bv6 8))))
(assert (not (= x64 x66)))
(assert (not (= x64 x67)))
(assert (not (= x64 x68)))
(assert (not (= (_ bv6 8) x66)))
(assert (not (= (_ bv6 8) x67)))
(assert (not (= (_ bv6 8) x68)))
(assert (not (= x66 x67)))
(assert (not (= x66 x68)))
(assert (not (= x67 x68)))
(assert (not (= x70 x71)))
(assert (not (= x70 x72)))
(assert (not (= x70 x73)))
(assert (not (= x70 x74)))
(assert (not (= x70 x75)))
(assert (not (= x70 x76)))
(assert (not (= x70 (_ bv7 8))))
(assert (not (= x70 x78)))
(assert (not (= x71 x72)))
(assert (not (= x71 x73)))
(assert (not (= x71 x74)))
(assert (not (= x71 x75)))
(assert (not (= x71 x76)))
(assert (not (= x71 (_ bv7 8))))
(assert (not (= x71 x78)))
(assert (not (= x72 x73)))
(assert (not (= x72 x74)))
(assert (not (= x72 x75)))
(assert (not (= x72 x76)))
(assert (not (= x72 (_ bv7 8))))
(assert (not (= x72 x78)))
(assert (not (= x73 x74)))
(assert (not (= x73 x75)))
(assert (not (= x73 x76)))
(assert (not (= x73 (_ bv7 8))))
(assert (not (= x73 x78)))
(assert (not (= x74 x75)))
(assert (not (= x74 x76)))
(assert (not (= x74 (_ bv7 8))))
(assert (not (= x74 x78)))
(assert (not (= x75 x76)))
(assert (not (= x75 (_ bv7 8))))
(assert (not (= x75 x78)))
(assert (not (= x76 (_ bv7 8))))
(assert (not (= x76 x78)))
(assert (not (= (_ bv7 8) x78)))
(assert (not (= x80 (_ bv9 8))))
(assert (not (= x80 x82)))
(assert (not (= x80 x83)))
(assert (not (= x80 x84)))
(assert (not (= x80 x85)))
(assert (not (= x80 (_ bv1 8))))
(assert (not (= x80 x87)))
(assert (not (= x80 (_ bv3 8))))
(assert (not (= (_ bv9 8) x82)))
(assert (not (= (_ bv9 8) x83)))
(assert (not (= (_ bv9 8) x84)))
(assert (not (= (_ bv9 8) x85)))
(assert (not (= (_ bv9 8) (_ bv1 8))))
(assert (not (= (_ bv9 8) x87)))
(assert (not (= (_ bv9 8) (_ bv3 8))))
(assert (not (= x82 x83)))
(assert (not (= x82 x84)))
(assert (not (= x82 x85)))
(assert (not (= x82 (_ bv1 8))))
(assert (not (= x82 x87)))
(assert (not (= x82 (_ bv3 8))))
(assert (not (= x83 x84)))
(assert (not (= x83 x85)))
(assert (not (= x83 (_ bv1 8))))
(assert (not (= x83 x87)))
(assert (not (= x83 (_ bv3 8))))
(assert (not (= x84 x85)))
(assert (not (= x84 (_ bv1 8))))
(assert (not (= x84 x87)))
(assert (not (= x84 (_ bv3 8))))
(assert (not (= x85 (_ bv1 8))))
(assert (not (= x85 x87)))
(assert (not (= x85 (_ bv3 8))))
(assert (not (= (_ bv1 8) x87)))
(assert (not (= (_ bv1 8) (_ bv3 8))))
(assert (not (= x87 (_ bv3 8))))
(assert (not (= x00 x10)))
(assert (not (= x00 x20)))
(assert (not (= x00 x30)))
(assert (not (= x00 x40)))
(assert (not (= x00 (_ bv6 8))))
(assert (not (= x00 (_ bv2 8))))
(assert (not (= x00 x70)))
(assert (not (= x00 x80)))
(assert (not (= x10 x20)))
(assert (not (= x10 x30)))
(assert (not (= x10 x40)))
(assert (not (= x10 (_ bv6 8))))
(assert (not (= x10 (_ bv2 8))))
(assert (not (= x10 x70)))
(assert (not (= x10 x80)))
(assert (not (= x20 x30)))
(assert (not (= x20 x40)))
(assert (not (= x20 (_ bv6 8))))
(assert (not (= x20 (_ bv2 8))))
(assert (not (= x20 x70)))
(assert (not (= x20 x80)))
(assert (not (= x30 x40)))
(assert (not (= x30 (_ bv6 8))))
(assert (not (= x30 (_ bv2 8))))
(assert (not (= x30 x70)))
(assert (not (= x30 x80)))
(assert (not (= x40 (_ bv6 8))))
(assert (not (= x40 (_ bv2 8))))
(assert (not (= x40 x70)))
(assert (not (= x40 x80)))
(assert (not (= (_ bv6 8) (_ bv2 8))))
(assert (not (= (_ bv6 8) x70)))
(assert (not (= (_ bv6 8) x80)))
(assert (not (= (_ bv2 8) x70)))
(assert (not (= (_ bv2 8) x80)))
(assert (not (= x70 x80)))
(assert (not (= x01 x11)))
(assert (not (= x01 x21)))
(assert (not (= x01 x31)))
(assert (not (= x01 x41)))
(assert (not (= x01 x51)))
(assert (not (= x01 (_ bv4 8))))
(assert (not (= x01 x71)))
(assert (not (= x01 (_ bv9 8))))
(assert (not (= x11 x21)))
(assert (not (= x11 x31)))
(assert (not (= x11 x41)))
(assert (not (= x11 x51)))
(assert (not (= x11 (_ bv4 8))))
(assert (not (= x11 x71)))
(assert (not (= x11 (_ bv9 8))))
(assert (not (= x21 x31)))
(assert (not (= x21 x41)))
(assert (not (= x21 x51)))
(assert (not (= x21 (_ bv4 8))))
(assert (not (= x21 x71)))
(assert (not (= x21 (_ bv9 8))))
(assert (not (= x31 x41)))
(assert (not (= x31 x51)))
(assert (not (= x31 (_ bv4 8))))
(assert (not (= x31 x71)))
(assert (not (= x31 (_ bv9 8))))
(assert (not (= x41 x51)))
(assert (not (= x41 (_ bv4 8))))
(assert (not (= x41 x71)))
(assert (not (= x41 (_ bv9 8))))
(assert (not (= x51 (_ bv4 8))))
(assert (not (= x51 x71)))
(assert (not (= x51 (_ bv9 8))))
(assert (not (= (_ bv4 8) x71)))
(assert (not (= (_ bv4 8) (_ bv9 8))))
(assert (not (= x71 (_ bv9 8))))
(assert (not (= x02 x12)))
(assert (not (= x02 x22)))
(assert (not (= x02 (_ bv3 8))))
(assert (not (= x02 (_ bv8 8))))
(assert (not (= x02 x52)))
(assert (not (= x02 x62)))
(assert (not (= x02 x72)))
(assert (not (= x02 x82)))
(assert (not (= x12 x22)))
(assert (not (= x12 (_ bv3 8))))
(assert (not (= x12 (_ bv8 8))))
(assert (not (= x12 x52)))
(assert (not (= x12 x62)))
(assert (not (= x12 x72)))
(assert (not (= x12 x82)))
(assert (not (= x22 (_ bv3 8))))
(assert (not (= x22 (_ bv8 8))))
(assert (not (= x22 x52)))
(assert (not (= x22 x62)))
(assert (not (= x22 x72)))
(assert (not (= x22 x82)))
(assert (not (= (_ bv3 8) (_ bv8 8))))
(assert (not (= (_ bv3 8) x52)))
(assert (not (= (_ bv3 8) x62)))
(assert (not (= (_ bv3 8) x72)))
(assert (not (= (_ bv3 8) x82)))
(assert (not (= (_ bv8 8) x52)))
(assert (not (= (_ bv8 8) x62)))
(assert (not (= (_ bv8 8) x72)))
(assert (not (= (_ bv8 8) x82)))
(assert (not (= x52 x62)))
(assert (not (= x52 x72)))
(assert (not (= x52 x82)))
(assert (not (= x62 x72)))
(assert (not (= x62 x82)))
(assert (not (= x72 x82)))
(assert (not (= x03 (_ bv3 8))))
(assert (not (= x03 (_ bv2 8))))
(assert (not (= x03 (_ bv5 8))))
(assert (not (= x03 x43)))
(assert (not (= x03 x53)))
(assert (not (= x03 x63)))
(assert (not (= x03 x73)))
(assert (not (= x03 x83)))
(assert (not (= (_ bv3 8) (_ bv2 8))))
(assert (not (= (_ bv3 8) (_ bv5 8))))
(assert (not (= (_ bv3 8) x43)))
(assert (not (= (_ bv3 8) x53)))
(assert (not (= (_ bv3 8) x63)))
(assert (not (= (_ bv3 8) x73)))
(assert (not (= (_ bv3 8) x83)))
(assert (not (= (_ bv2 8) (_ bv5 8))))
(assert (not (= (_ bv2 8) x43)))
(assert (not (= (_ bv2 8) x53)))
(assert (not (= (_ bv2 8) x63)))
(assert (not (= (_ bv2 8) x73)))
(assert (not (= (_ bv2 8) x83)))
(assert (not (= (_ bv5 8) x43)))
(assert (not (= (_ bv5 8) x53)))
(assert (not (= (_ bv5 8) x63)))
(assert (not (= (_ bv5 8) x73)))
(assert (not (= (_ bv5 8) x83)))
(assert (not (= x43 x53)))
(assert (not (= x43 x63)))
(assert (not (= x43 x73)))
(assert (not (= x43 x83)))
(assert (not (= x53 x63)))
(assert (not (= x53 x73)))
(assert (not (= x53 x83)))
(assert (not (= x63 x73)))
(assert (not (= x63 x83)))
(assert (not (= x73 x83)))
(assert (not (= x04 x14)))
(assert (not (= x04 (_ bv8 8))))
(assert (not (= x04 (_ bv2 8))))
(assert (not (= x04 x44)))
(assert (not (= x04 x54)))
(assert (not (= x04 x64)))
(assert (not (= x04 x74)))
(assert (not (= x04 x84)))
(assert (not (= x14 (_ bv8 8))))
(assert (not (= x14 (_ bv2 8))))
(assert (not (= x14 x44)))
(assert (not (= x14 x54)))
(assert (not (= x14 x64)))
(assert (not (= x14 x74)))
(assert (not (= x14 x84)))
(assert (not (= (_ bv8 8) (_ bv2 8))))
(assert (not (= (_ bv8 8) x44)))
(assert (not (= (_ bv8 8) x54)))
(assert (not (= (_ bv8 8) x64)))
(assert (not (= (_ bv8 8) x74)))
(assert (not (= (_ bv8 8) x84)))
(assert (not (= (_ bv2 8) x44)))
(assert (not (= (_ bv2 8) x54)))
(assert (not (= (_ bv2 8) x64)))
(assert (not (= (_ bv2 8) x74)))
(assert (not (= (_ bv2 8) x84)))
(assert (not (= x44 x54)))
(assert (not (= x44 x64)))
(assert (not (= x44 x74)))
(assert (not (= x44 x84)))
(assert (not (= x54 x64)))
(assert (not (= x54 x74)))
(assert (not (= x54 x84)))
(assert (not (= x64 x74)))
(assert (not (= x64 x84)))
(assert (not (= x74 x84)))
(assert (not (= (_ bv5 8) x15)))
(assert (not (= (_ bv5 8) x25)))
(assert (not (= (_ bv5 8) x35)))
(assert (not (= (_ bv5 8) x45)))
(assert (not (= (_ bv5 8) (_ bv4 8))))
(assert (not (= (_ bv5 8) (_ bv6 8))))
(assert (not (= (_ bv5 8) x75)))
(assert (not (= (_ bv5 8) x85)))
(assert (not (= x15 x25)))
(assert (not (= x15 x35)))
(assert (not (= x15 x45)))
(assert (not (= x15 (_ bv4 8))))
(assert (not (= x15 (_ bv6 8))))
(assert (not (= x15 x75)))
(assert (not (= x15 x85)))
(assert (not (= x25 x35)))
(assert (not (= x25 x45)))
(assert (not (= x25 (_ bv4 8))))
(assert (not (= x25 (_ bv6 8))))
(assert (not (= x25 x75)))
(assert (not (= x25 x85)))
(assert (not (= x35 x45)))
(assert (not (= x35 (_ bv4 8))))
(assert (not (= x35 (_ bv6 8))))
(assert (not (= x35 x75)))
(assert (not (= x35 x85)))
(assert (not (= x45 (_ bv4 8))))
(assert (not (= x45 (_ bv6 8))))
(assert (not (= x45 x75)))
(assert (not (= x45 x85)))
(assert (not (= (_ bv4 8) (_ bv6 8))))
(assert (not (= (_ bv4 8) x75)))
(assert (not (= (_ bv4 8) x85)))
(assert (not (= (_ bv6 8) x75)))
(assert (not (= (_ bv6 8) x85)))
(assert (not (= x75 x85)))
(assert (not (= x06 x16)))
(assert (not (= x06 (_ bv5 8))))
(assert (not (= x06 x36)))
(assert (not (= x06 x46)))
(assert (not (= x06 x56)))
(assert (not (= x06 x66)))
(assert (not (= x06 x76)))
(assert (not (= x06 (_ bv1 8))))
(assert (not (= x16 (_ bv5 8))))
(assert (not (= x16 x36)))
(assert (not (= x16 x46)))
(assert (not (= x16 x56)))
(assert (not (= x16 x66)))
(assert (not (= x16 x76)))
(assert (not (= x16 (_ bv1 8))))
(assert (not (= (_ bv5 8) x36)))
(assert (not (= (_ bv5 8) x46)))
(assert (not (= (_ bv5 8) x56)))
(assert (not (= (_ bv5 8) x66)))
(assert (not (= (_ bv5 8) x76)))
(assert (not (= (_ bv5 8) (_ bv1 8))))
(assert (not (= x36 x46)))
(assert (not (= x36 x56)))
(assert (not (= x36 x66)))
(assert (not (= x36 x76)))
(assert (not (= x36 (_ bv1 8))))
(assert (not (= x46 x56)))
(assert (not (= x46 x66)))
(assert (not (= x46 x76)))
(assert (not (= x46 (_ bv1 8))))
(assert (not (= x56 x66)))
(assert (not (= x56 x76)))
(assert (not (= x56 (_ bv1 8))))
(assert (not (= x66 x76)))
(assert (not (= x66 (_ bv1 8))))
(assert (not (= x76 (_ bv1 8))))
(assert (not (= (_ bv4 8) x17)))
(assert (not (= (_ bv4 8) x27)))
(assert (not (= (_ bv4 8) (_ bv6 8))))
(assert (not (= (_ bv4 8) x47)))
(assert (not (= (_ bv4 8) (_ bv5 8))))
(assert (not (= (_ bv4 8) x67)))
(assert (not (= (_ bv4 8) (_ bv7 8))))
(assert (not (= (_ bv4 8) x87)))
(assert (not (= x17 x27)))
(assert (not (= x17 (_ bv6 8))))
(assert (not (= x17 x47)))
(assert (not (= x17 (_ bv5 8))))
(assert (not (= x17 x67)))
(assert (not (= x17 (_ bv7 8))))
(assert (not (= x17 x87)))
(assert (not (= x27 (_ bv6 8))))
(assert (not (= x27 x47)))
(assert (not (= x27 (_ bv5 8))))
(assert (not (= x27 x67)))
(assert (not (= x27 (_ bv7 8))))
(assert (not (= x27 x87)))
(assert (not (= (_ bv6 8) x47)))
(assert (not (= (_ bv6 8) (_ bv5 8))))
(assert (not (= (_ bv6 8) x67)))
(assert (not (= (_ bv6 8) (_ bv7 8))))
(assert (not (= (_ bv6 8) x87)))
(assert (not (= x47 (_ bv5 8))))
(assert (not (= x47 x67)))
(assert (not (= x47 (_ bv7 8))))
(assert (not (= x47 x87)))
(assert (not (= (_ bv5 8) x67)))
(assert (not (= (_ bv5 8) (_ bv7 8))))
(assert (not (= (_ bv5 8) x87)))
(assert (not (= x67 (_ bv7 8))))
(assert (not (= x67 x87)))
(assert (not (= (_ bv7 8) x87)))
(assert (not (= (_ bv7 8) x18)))
(assert (not (= (_ bv7 8) x28)))
(assert (not (= (_ bv7 8) x38)))
(assert (not (= (_ bv7 8) x48)))
(assert (not (= (_ bv7 8) x58)))
(assert (not (= (_ bv7 8) x68)))
(assert (not (= (_ bv7 8) x78)))
(assert (not (= (_ bv7 8) (_ bv3 8))))
(assert (not (= x18 x28)))
(assert (not (= x18 x38)))
(assert (not (= x18 x48)))
(assert (not (= x18 x58)))
(assert (not (= x18 x68)))
(assert (not (= x18 x78)))
(assert (not (= x18 (_ bv3 8))))
(assert (not (= x28 x38)))
(assert (not (= x28 x48)))
(assert (not (= x28 x58)))
(assert (not (= x28 x68)))
(assert (not (= x28 x78)))
(assert (not (= x28 (_ bv3 8))))
(assert (not (= x38 x48)))
(assert (not (= x38 x58)))
(assert (not (= x38 x68)))
(assert (not (= x38 x78)))
(assert (not (= x38 (_ bv3 8))))
(assert (not (= x48 x58)))
(assert (not (= x48 x68)))
(assert (not (= x48 x78)))
(assert (not (= x48 (_ bv3 8))))
(assert (not (= x58 x68)))
(assert (not (= x58 x78)))
(assert (not (= x58 (_ bv3 8))))
(assert (not (= x68 x78)))
(assert (not (= x68 (_ bv3 8))))
(assert (not (= x78 (_ bv3 8))))
(assert (not (= x00 x01)))
(assert (not (= x00 x02)))
(assert (not (= x00 x10)))
(assert (not (= x00 x11)))
(assert (not (= x00 x12)))
(assert (not (= x00 x20)))
(assert (not (= x00 x21)))
(assert (not (= x00 x22)))
(assert (not (= x01 x02)))
(assert (not (= x01 x10)))
(assert (not (= x01 x11)))
(assert (not (= x01 x12)))
(assert (not (= x01 x20)))
(assert (not (= x01 x21)))
(assert (not (= x01 x22)))
(assert (not (= x02 x10)))
(assert (not (= x02 x11)))
(assert (not (= x02 x12)))
(assert (not (= x02 x20)))
(assert (not (= x02 x21)))
(assert (not (= x02 x22)))
(assert (not (= x10 x11)))
(assert (not (= x10 x12)))
(assert (not (= x10 x20)))
(assert (not (= x10 x21)))
(assert (not (= x10 x22)))
(assert (not (= x11 x12)))
(assert (not (= x11 x20)))
(assert (not (= x11 x21)))
(assert (not (= x11 x22)))
(assert (not (= x12 x20)))
(assert (not (= x12 x21)))
(assert (not (= x12 x22)))
(assert (not (= x20 x21)))
(assert (not (= x20 x22)))
(assert (not (= x21 x22)))
(assert (not (= x03 x04)))
(assert (not (= x03 (_ bv5 8))))
(assert (not (= x03 (_ bv3 8))))
(assert (not (= x03 x14)))
(assert (not (= x03 x15)))
(assert (not (= x03 (_ bv2 8))))
(assert (not (= x03 (_ bv8 8))))
(assert (not (= x03 x25)))
(assert (not (= x04 (_ bv5 8))))
(assert (not (= x04 (_ bv3 8))))
(assert (not (= x04 x14)))
(assert (not (= x04 x15)))
(assert (not (= x04 (_ bv2 8))))
(assert (not (= x04 (_ bv8 8))))
(assert (not (= x04 x25)))
(assert (not (= (_ bv5 8) (_ bv3 8))))
(assert (not (= (_ bv5 8) x14)))
(assert (not (= (_ bv5 8) x15)))
(assert (not (= (_ bv5 8) (_ bv2 8))))
(assert (not (= (_ bv5 8) (_ bv8 8))))
(assert (not (= (_ bv5 8) x25)))
(assert (not (= (_ bv3 8) x14)))
(assert (not (= (_ bv3 8) x15)))
(assert (not (= (_ bv3 8) (_ bv2 8))))
(assert (not (= (_ bv3 8) (_ bv8 8))))
(assert (not (= (_ bv3 8) x25)))
(assert (not (= x14 x15)))
(assert (not (= x14 (_ bv2 8))))
(assert (not (= x14 (_ bv8 8))))
(assert (not (= x14 x25)))
(assert (not (= x15 (_ bv2 8))))
(assert (not (= x15 (_ bv8 8))))
(assert (not (= x15 x25)))
(assert (not (= (_ bv2 8) (_ bv8 8))))
(assert (not (= (_ bv2 8) x25)))
(assert (not (= (_ bv8 8) x25)))
(assert (not (= x06 (_ bv4 8))))
(assert (not (= x06 (_ bv7 8))))
(assert (not (= x06 x16)))
(assert (not (= x06 x17)))
(assert (not (= x06 x18)))
(assert (not (= x06 (_ bv5 8))))
(assert (not (= x06 x27)))
(assert (not (= x06 x28)))
(assert (not (= (_ bv4 8) (_ bv7 8))))
(assert (not (= (_ bv4 8) x16)))
(assert (not (= (_ bv4 8) x17)))
(assert (not (= (_ bv4 8) x18)))
(assert (not (= (_ bv4 8) (_ bv5 8))))
(assert (not (= (_ bv4 8) x27)))
(assert (not (= (_ bv4 8) x28)))
(assert (not (= (_ bv7 8) x16)))
(assert (not (= (_ bv7 8) x17)))
(assert (not (= (_ bv7 8) x18)))
(assert (not (= (_ bv7 8) (_ bv5 8))))
(assert (not (= (_ bv7 8) x27)))
(assert (not (= (_ bv7 8) x28)))
(assert (not (= x16 x17)))
(assert (not (= x16 x18)))
(assert (not (= x16 (_ bv5 8))))
(assert (not (= x16 x27)))
(assert (not (= x16 x28)))
(assert (not (= x17 x18)))
(assert (not (= x17 (_ bv5 8))))
(assert (not (= x17 x27)))
(assert (not (= x17 x28)))
(assert (not (= x18 (_ bv5 8))))
(assert (not (= x18 x27)))
(assert (not (= x18 x28)))
(assert (not (= (_ bv5 8) x27)))
(assert (not (= (_ bv5 8) x28)))
(assert (not (= x27 x28)))
(assert (not (= x30 x31)))
(assert (not (= x30 (_ bv3 8))))
(assert (not (= x30 x40)))
(assert (not (= x30 x41)))
(assert (not (= x30 (_ bv8 8))))
(assert (not (= x30 (_ bv6 8))))
(assert (not (= x30 x51)))
(assert (not (= x30 x52)))
(assert (not (= x31 (_ bv3 8))))
(assert (not (= x31 x40)))
(assert (not (= x31 x41)))
(assert (not (= x31 (_ bv8 8))))
(assert (not (= x31 (_ bv6 8))))
(assert (not (= x31 x51)))
(assert (not (= x31 x52)))
(assert (not (= (_ bv3 8) x40)))
(assert (not (= (_ bv3 8) x41)))
(assert (not (= (_ bv3 8) (_ bv8 8))))
(assert (not (= (_ bv3 8) (_ bv6 8))))
(assert (not (= (_ bv3 8) x51)))
(assert (not (= (_ bv3 8) x52)))
(assert (not (= x40 x41)))
(assert (not (= x40 (_ bv8 8))))
(assert (not (= x40 (_ bv6 8))))
(assert (not (= x40 x51)))
(assert (not (= x40 x52)))
(assert (not (= x41 (_ bv8 8))))
(assert (not (= x41 (_ bv6 8))))
(assert (not (= x41 x51)))
(assert (not (= x41 x52)))
(assert (not (= (_ bv8 8) (_ bv6 8))))
(assert (not (= (_ bv8 8) x51)))
(assert (not (= (_ bv8 8) x52)))
(assert (not (= (_ bv6 8) x51)))
(assert (not (= (_ bv6 8) x52)))
(assert (not (= x51 x52)))
(assert (not (= (_ bv5 8) (_ bv2 8))))
(assert (not (= (_ bv5 8) x35)))
(assert (not (= (_ bv5 8) x43)))
(assert (not (= (_ bv5 8) x44)))
(assert (not (= (_ bv5 8) x45)))
(assert (not (= (_ bv5 8) x53)))
(assert (not (= (_ bv5 8) x54)))
(assert (not (= (_ bv5 8) (_ bv4 8))))
(assert (not (= (_ bv2 8) x35)))
(assert (not (= (_ bv2 8) x43)))
(assert (not (= (_ bv2 8) x44)))
(assert (not (= (_ bv2 8) x45)))
(assert (not (= (_ bv2 8) x53)))
(assert (not (= (_ bv2 8) x54)))
(assert (not (= (_ bv2 8) (_ bv4 8))))
(assert (not (= x35 x43)))
(assert (not (= x35 x44)))
(assert (not (= x35 x45)))
(assert (not (= x35 x53)))
(assert (not (= x35 x54)))
(assert (not (= x35 (_ bv4 8))))
(assert (not (= x43 x44)))
(assert (not (= x43 x45)))
(assert (not (= x43 x53)))
(assert (not (= x43 x54)))
(assert (not (= x43 (_ bv4 8))))
(assert (not (= x44 x45)))
(assert (not (= x44 x53)))
(assert (not (= x44 x54)))
(assert (not (= x44 (_ bv4 8))))
(assert (not (= x45 x53)))
(assert (not (= x45 x54)))
(assert (not (= x45 (_ bv4 8))))
(assert (not (= x53 x54)))
(assert (not (= x53 (_ bv4 8))))
(assert (not (= x54 (_ bv4 8))))
(assert (not (= x36 (_ bv6 8))))
(assert (not (= x36 x38)))
(assert (not (= x36 x46)))
(assert (not (= x36 x47)))
(assert (not (= x36 x48)))
(assert (not (= x36 x56)))
(assert (not (= x36 (_ bv5 8))))
(assert (not (= x36 x58)))
(assert (not (= (_ bv6 8) x38)))
(assert (not (= (_ bv6 8) x46)))
(assert (not (= (_ bv6 8) x47)))
(assert (not (= (_ bv6 8) x48)))
(assert (not (= (_ bv6 8) x56)))
(assert (not (= (_ bv6 8) (_ bv5 8))))
(assert (not (= (_ bv6 8) x58)))
(assert (not (= x38 x46)))
(assert (not (= x38 x47)))
(assert (not (= x38 x48)))
(assert (not (= x38 x56)))
(assert (not (= x38 (_ bv5 8))))
(assert (not (= x38 x58)))
(assert (not (= x46 x47)))
(assert (not (= x46 x48)))
(assert (not (= x46 x56)))
(assert (not (= x46 (_ bv5 8))))
(assert (not (= x46 x58)))
(assert (not (= x47 x48)))
(assert (not (= x47 x56)))
(assert (not (= x47 (_ bv5 8))))
(assert (not (= x47 x58)))
(assert (not (= x48 x56)))
(assert (not (= x48 (_ bv5 8))))
(assert (not (= x48 x58)))
(assert (not (= x56 (_ bv5 8))))
(assert (not (= x56 x58)))
(assert (not (= (_ bv5 8) x58)))
(assert (not (= (_ bv2 8) (_ bv4 8))))
(assert (not (= (_ bv2 8) x62)))
(assert (not (= (_ bv2 8) x70)))
(assert (not (= (_ bv2 8) x71)))
(assert (not (= (_ bv2 8) x72)))
(assert (not (= (_ bv2 8) x80)))
(assert (not (= (_ bv2 8) (_ bv9 8))))
(assert (not (= (_ bv2 8) x82)))
(assert (not (= (_ bv4 8) x62)))
(assert (not (= (_ bv4 8) x70)))
(assert (not (= (_ bv4 8) x71)))
(assert (not (= (_ bv4 8) x72)))
(assert (not (= (_ bv4 8) x80)))
(assert (not (= (_ bv4 8) (_ bv9 8))))
(assert (not (= (_ bv4 8) x82)))
(assert (not (= x62 x70)))
(assert (not (= x62 x71)))
(assert (not (= x62 x72)))
(assert (not (= x62 x80)))
(assert (not (= x62 (_ bv9 8))))
(assert (not (= x62 x82)))
(assert (not (= x70 x71)))
(assert (not (= x70 x72)))
(assert (not (= x70 x80)))
(assert (not (= x70 (_ bv9 8))))
(assert (not (= x70 x82)))
(assert (not (= x71 x72)))
(assert (not (= x71 x80)))
(assert (not (= x71 (_ bv9 8))))
(assert (not (= x71 x82)))
(assert (not (= x72 x80)))
(assert (not (= x72 (_ bv9 8))))
(assert (not (= x72 x82)))
(assert (not (= x80 (_ bv9 8))))
(assert (not (= x80 x82)))
(assert (not (= (_ bv9 8) x82)))
(assert (not (= x63 x64)))
(assert (not (= x63 (_ bv6 8))))
(assert (not (= x63 x73)))
(assert (not (= x63 x74)))
(assert (not (= x63 x75)))
(assert (not (= x63 x83)))
(assert (not (= x63 x84)))
(assert (not (= x63 x85)))
(assert (not (= x64 (_ bv6 8))))
(assert (not (= x64 x73)))
(assert (not (= x64 x74)))
(assert (not (= x64 x75)))
(assert (not (= x64 x83)))
(assert (not (= x64 x84)))
(assert (not (= x64 x85)))
(assert (not (= (_ bv6 8) x73)))
(assert (not (= (_ bv6 8) x74)))
(assert (not (= (_ bv6 8) x75)))
(assert (not (= (_ bv6 8) x83)))
(assert (not (= (_ bv6 8) x84)))
(assert (not (= (_ bv6 8) x85)))
(assert (not (= x73 x74)))
(assert (not (= x73 x75)))
(assert (not (= x73 x83)))
(assert (not (= x73 x84)))
(assert (not (= x73 x85)))
(assert (not (= x74 x75)))
(assert (not (= x74 x83)))
(assert (not (= x74 x84)))
(assert (not (= x74 x85)))
(assert (not (= x75 x83)))
(assert (not (= x75 x84)))
(assert (not (= x75 x85)))
(assert (not (= x83 x84)))
(assert (not (= x83 x85)))
(assert (not (= x84 x85)))
(assert (not (= x66 x67)))
(assert (not (= x66 x68)))
(assert (not (= x66 x76)))
(assert (not (= x66 (_ bv7 8))))
(assert (not (= x66 x78)))
(assert (not (= x66 (_ bv1 8))))
(assert (not (= x66 x87)))
(assert (not (= x66 (_ bv3 8))))
(assert (not (= x67 x68)))
(assert (not (= x67 x76)))
(assert (not (= x67 (_ bv7 8))))
(assert (not (= x67 x78)))
(assert (not (= x67 (_ bv1 8))))
(assert (not (= x67 x87)))
(assert (not (= x67 (_ bv3 8))))
(assert (not (= x68 x76)))
(assert (not (= x68 (_ bv7 8))))
(assert (not (= x68 x78)))
(assert (not (= x68 (_ bv1 8))))
(assert (not (= x68 x87)))
(assert (not (= x68 (_ bv3 8))))
(assert (not (= x76 (_ bv7 8))))
(assert (not (= x76 x78)))
(assert (not (= x76 (_ bv1 8))))
(assert (not (= x76 x87)))
(assert (not (= x76 (_ bv3 8))))
(assert (not (= (_ bv7 8) x78)))
(assert (not (= (_ bv7 8) (_ bv1 8))))
(assert (not (= (_ bv7 8) x87)))
(assert (not (= (_ bv7 8) (_ bv3 8))))
(assert (not (= x78 (_ bv1 8))))
(assert (not (= x78 x87)))
(assert (not (= x78 (_ bv3 8))))
(assert (not (= (_ bv1 8) x87)))
(assert (not (= (_ bv1 8) (_ bv3 8))))
(assert (not (= x87 (_ bv3 8))))
(check-sat)
(exit)
